 vasp.5.3.3 18Dez12 (build Oct 09 2013 19:30:48) complex

 executed on      NSC-VANILLA-B15 date 2013.10.25  13:55:56

 INCAR:
 POTCAR:    PAW Si_GW 04May2012

 POTCAR:    PAW Si_GW 04May2012
   VRHFIN =Si: s2p2

   TITEL  = PAW Si_GW 04May2012
   POMASS =   28.085; ZVAL   =    4.000    mass and valenz
   ENMAX  =  245.345; ENMIN  =  184.009 eV

  PAW Si_GW 04May2012                   :

 POSCAR: system Si
  positions in cartesian coordinates
  velocities in cartesian coordinates
 exchange correlation table for  LEXCH =        8
   RHO(1)=    0.500       N(1)  =     2000
   RHO(2)=  100.500       N(2)  =     4000

 ion  position               nearest neighbor table
   1  0.000  0.000  0.000-   2 2.35   2 2.35   2 2.35   2 2.35
   2  0.250  0.250  0.250-   1 2.35   1 2.35   1 2.35   1 2.35

  LATTYP: Found a face centered cubic cell.
 ALAT       =     5.4300000000

  Lattice vectors:

 A1 = (   2.7150000000,   2.7150000000,   0.0000000000)
 A2 = (   0.0000000000,   2.7150000000,   2.7150000000)
 A3 = (   2.7150000000,   0.0000000000,   2.7150000000)

Analysis of symmetry for initial positions (statically):
 Subroutine PRICEL returns:
 Original cell was already a primitive cell.

 Routine SETGRP: Setting up the symmetry group for a
 face centered cubic supercell.

 Subroutine GETGRP returns: Found 48 space group operations
 (whereof 24 operations were pure point group operations)
 out of a pool of 48 trial point group operations.

The static configuration has the point symmetry T_d .
 The point group associated with its full space group is O_h .

Analysis of symmetry for dynamics (positions and initial velocities):
 Subroutine PRICEL returns:
 Original cell was already a primitive cell.

 Routine SETGRP: Setting up the symmetry group for a
 face centered cubic supercell.

 Subroutine GETGRP returns: Found 48 space group operations
 (whereof 24 operations were pure point group operations)
 out of a pool of 48 trial point group operations.

The dynamic configuration has the point symmetry T_d .
 The point group associated with its full space group is O_h .

 irot  :   1
 isymop:   1   0   0
           0   1   0
           0   0   1

 gtrans:     0.0000000     0.0000000     0.0000000

 ptrans:     0.0000000     0.0000000     0.0000000
 rotmap:
 (   1->   1)  (   2->   2)

[...]

 irot  :  48
 isymop:   0   0  -1
           0  -1   0
          -1   0   0

 gtrans:     0.2500000     0.2500000     0.2500000

 ptrans:     0.0000000     0.0000000     0.0000000
 rotmap:
 (   1->   2)  (   2->   1)

 KPOINTS: 4x4x4

Automatic generation of k-mesh.
Space group operators:
 irot       det(A)        alpha          n_x          n_y          n_z        tau_x        tau_y        tau_z
    1     1.000000     0.000001     1.000000     0.000000     0.000000     0.000000     0.000000     0.000000
    2     1.000000   120.000000    -0.577350    -0.577350    -0.577350     0.000000     0.000000     0.000000
    3     1.000000   120.000000     0.577350     0.577350     0.577350     0.000000     0.000000     0.000000
    4    -1.000000    90.000000     0.000000    -1.000000     0.000000     0.000000     0.000000     0.000000
    5    -1.000000   180.000000     0.707107     0.707107     0.000000     0.000000     0.000000     0.000000
    6    -1.000000    90.000000     1.000000     0.000000     0.000000     0.000000     0.000000     0.000000
    7     1.000000   180.000000     0.000000     1.000000     0.000000     0.000000     0.000000     0.000000
    8     1.000000   120.000000     0.577350     0.577350    -0.577350     0.000000     0.000000     0.000000
    9     1.000000   120.000000     0.577350    -0.577350    -0.577350     0.000000     0.000000     0.000000
   10    -1.000000    90.000000     0.000000     1.000000     0.000000     0.000000     0.000000     0.000000
   11    -1.000000    90.000000     0.000000     0.000000    -1.000000     0.000000     0.000000     0.000000
   12    -1.000000   180.000000     0.000000     0.707107     0.707107     0.000000     0.000000     0.000000
   13     1.000000   120.000000    -0.577350     0.577350     0.577350     0.000000     0.000000     0.000000
   14     1.000000   120.000000    -0.577350     0.577350    -0.577350     0.000000     0.000000     0.000000
   15     1.000000   180.000000     0.000000     0.000000     1.000000     0.000000     0.000000     0.000000
   16    -1.000000    90.000000    -1.000000     0.000000     0.000000     0.000000     0.000000     0.000000
   17    -1.000000   180.000000     0.707107     0.000000     0.707107     0.000000     0.000000     0.000000
   18    -1.000000    90.000000     0.000000     0.000000     1.000000     0.000000     0.000000     0.000000
   19     1.000000   120.000000    -0.577350    -0.577350     0.577350     0.000000     0.000000     0.000000
   20     1.000000   180.000000     1.000000     0.000000     0.000000     0.000000     0.000000     0.000000
   21     1.000000   120.000000     0.577350    -0.577350     0.577350     0.000000     0.000000     0.000000
   22    -1.000000   180.000000     0.707107    -0.707107     0.000000     0.000000     0.000000     0.000000
   23    -1.000000   180.000000     0.707107     0.000000    -0.707107     0.000000     0.000000     0.000000
   24    -1.000000   180.000000     0.000000    -0.707107     0.707107     0.000000     0.000000     0.000000
   25    -1.000000     0.000001     1.000000     0.000000     0.000000     0.250000     0.250000     0.250000
   26    -1.000000   120.000000    -0.577350    -0.577350    -0.577350     0.250000     0.250000     0.250000
   27    -1.000000   120.000000     0.577350     0.577350     0.577350     0.250000     0.250000     0.250000
   28     1.000000    90.000000     0.000000    -1.000000     0.000000     0.250000     0.250000     0.250000
   29     1.000000   180.000000     0.707107     0.707107     0.000000     0.250000     0.250000     0.250000
   30     1.000000    90.000000     1.000000     0.000000     0.000000     0.250000     0.250000     0.250000
   31    -1.000000   180.000000     0.000000     1.000000     0.000000     0.250000     0.250000     0.250000
   32    -1.000000   120.000000     0.577350     0.577350    -0.577350     0.250000     0.250000     0.250000
   33    -1.000000   120.000000     0.577350    -0.577350    -0.577350     0.250000     0.250000     0.250000
   34     1.000000    90.000000     0.000000     1.000000     0.000000     0.250000     0.250000     0.250000
   35     1.000000    90.000000     0.000000     0.000000    -1.000000     0.250000     0.250000     0.250000
   36     1.000000   180.000000     0.000000     0.707107     0.707107     0.250000     0.250000     0.250000
   37    -1.000000   120.000000    -0.577350     0.577350     0.577350     0.250000     0.250000     0.250000
   38    -1.000000   120.000000    -0.577350     0.577350    -0.577350     0.250000     0.250000     0.250000
   39    -1.000000   180.000000     0.000000     0.000000     1.000000     0.250000     0.250000     0.250000
   40     1.000000    90.000000    -1.000000     0.000000     0.000000     0.250000     0.250000     0.250000
   41     1.000000   180.000000     0.707107     0.000000     0.707107     0.250000     0.250000     0.250000
   42     1.000000    90.000000     0.000000     0.000000     1.000000     0.250000     0.250000     0.250000
   43    -1.000000   120.000000    -0.577350    -0.577350     0.577350     0.250000     0.250000     0.250000
   44    -1.000000   180.000000     1.000000     0.000000     0.000000     0.250000     0.250000     0.250000
   45    -1.000000   120.000000     0.577350    -0.577350     0.577350     0.250000     0.250000     0.250000
   46     1.000000   180.000000     0.707107    -0.707107     0.000000     0.250000     0.250000     0.250000
   47     1.000000   180.000000     0.707107     0.000000    -0.707107     0.250000     0.250000     0.250000
   48     1.000000   180.000000     0.000000    -0.707107     0.707107     0.250000     0.250000     0.250000

 Subroutine IBZKPT returns following result:

 Found      8 irreducible k-points:

 Following reciprocal coordinates:
            Coordinates               Weight
  0.000000  0.000000  0.000000      1.000000
  0.250000  0.000000  0.000000      8.000000
  0.500000  0.000000  0.000000      4.000000
  0.250000  0.250000  0.000000      6.000000
  0.500000  0.250000  0.000000     24.000000
 -0.250000  0.250000  0.000000     12.000000
  0.500000  0.500000  0.000000      3.000000
 -0.250000  0.500000  0.250000      6.000000

 Following cartesian coordinates:
            Coordinates               Weight
  0.000000  0.000000  0.000000      1.000000
  0.250000  0.250000 -0.250000      8.000000
  0.500000  0.500000 -0.500000      4.000000
  0.000000  0.500000  0.000000      6.000000
  0.250000  0.750000 -0.250000     24.000000
 -0.500000  0.000000  0.500000     12.000000
  0.000000  1.000000  0.000000      3.000000
 -0.500000  0.000000  1.000000      6.000000

 I would recommend the setting:
   dimension x,y,z NGX =    15 NGY =   15 NGZ =   15
 SYSTEM =  unknown system
 POSCAR =  system Si

 Startparameter for this run:
   NWRITE =      2    write-flag & timer
   PREC   = normal    normal or accurate (medium, high low for compatibility)
   ISTART =      1    job   : 0-new  1-cont  2-samecut
   ICHARG =      0    charge: 1-file 2-atom 10-const
   ISPIN  =      1    spin polarized calculation?
   LNONCOLLINEAR =      F non collinear calculations
   LSORBIT =      F    spin-orbit coupling
   INIWAV =      1    electr: 0-lowe 1-rand  2-diag
   LASPH  =      F    aspherical Exc in radial PAW
   METAGGA=      F    non-selfconsistent MetaGGA calc.

 Electronic Relaxation 1
   ENCUT  =  245.3 eV  18.03 Ry    4.25 a.u.   4.90  4.90  4.90*2*pi/ulx,y,z
   ENINI  =  245.3     initial cutoff
   ENAUG  =  413.0 eV  augmentation charge cutoff
   NELM   =     60;   NELMIN=  2; NELMDL=  0     # of ELM steps
   EDIFF  = 0.1E-03   stopping-criterion for ELM
   LREAL  =      F    real-space projection
   NLSPLINE    = F    spline interpolate recip. space projectors
   LCOMPAT=      F    compatible to vasp.4.4
   GGA_COMPAT  = T    GGA compatible to vasp.4.4-vasp.4.6
   LMAXPAW     = -100 max onsite density
   LMAXMIX     =    2 max onsite mixed and CHGCAR
   VOSKOWN=      0    Vosko Wilk Nusair interpolation
   ROPT   =    0.00000
 Ionic relaxation
   EDIFFG = 0.1E-02   stopping-criterion for IOM
   NSW    =      0    number of steps for IOM
   NBLOCK =      1;   KBLOCK =      1    inner block; outer block
   IBRION =     -1    ionic relax: 0-MD 1-quasi-New 2-CG
   NFREE  =      0    steps in history (QN), initial steepest desc. (CG)
   ISIF   =      2    stress and relaxation
   IWAVPR =     10    prediction:  0-non 1-charg 2-wave 3-comb
   ISYM   =      2    0-nonsym 1-usesym 2-fastsym
   LCORR  =      T    Harris-Foulkes like correction to forces

   POTIM  = 0.5000    time-step for ionic-motion
   TEIN   =    0.0    initial temperature
   TEBEG  =    0.0;   TEEND  =   0.0 temperature during run
   SMASS  =  -3.00    Nose mass-parameter (am)
   estimated Nose-frequenzy (Omega)   =  0.10E-29 period in steps =****** mass=  -0.337E-27a.u.
[...]
     63      70.4990      0.00000
     64      70.4991      0.00000

 soft charge-density along one line, spin component           1
         0         1         2         3         4         5         6         7         8         9
 total charge-density along one line

------------------------ aborting loop because EDIFF is reached ----------------------------------------

  FORCE on cell =-STRESS in cart. coord.  units (eV):
  Direction    XX          YY          ZZ          XY          YZ          ZX
  Alpha Z     6.08881     6.08881     6.08881
  Ewald     -76.18788   -76.18788   -76.18788    -0.00000     0.00000     0.00000
  Hartree     5.08161     5.08161     5.08161     0.00000     0.00000     0.00000
  E(xc)     -25.23760   -25.23760   -25.23760    -0.00001    -0.00001    -0.00001
  Local     -26.76164   -26.76164   -26.76164    -0.00000    -0.00000    -0.00000
  n-local    73.34955    67.87760    73.06634    -0.89371     0.89371     2.62734
  augment   -10.95644   -10.95644   -10.95644    -0.00001    -0.00001    -0.00001
  Kinetic    57.99623    54.62509    58.86693    -1.06823     1.06825     4.19898
  Fock        0.00000     0.00000     0.00000     0.00000     0.00000     0.00000
  Total       0.62078     0.62078     0.62078     0.00000     0.00000     0.00000
  in kB      24.84910    24.84910    24.84910     0.00000     0.00000     0.00000

 VOLUME and BASIS-vectors are now :
  energy-cutoff  :      245.34
  volume of cell :       40.03
      direct lattice vectors                 reciprocal lattice vectors
     2.715000000  2.715000000  0.000000000     0.184162063  0.184162063 -0.184162063
     0.000000000  2.715000000  2.715000000    -0.184162063  0.184162063  0.184162063
     2.715000000  0.000000000  2.715000000     0.184162063 -0.184162063  0.184162063

  length of vectors
     3.839589822  3.839589822  3.839589822     0.318978049  0.318978049  0.318978049

 FORCES acting on ions
    electron-ion (+dipol)            ewald-force                    non-local-force                 convergence-correction
   0.643E-05 0.632E-05 0.643E-05   -.273E-14 0.111E-14 0.310E-14   -.694E-16 -.278E-16 -.416E-16   -.116E-07 -.116E-07 -.116E-07
   -.643E-05 -.632E-05 -.643E-05   0.315E-14 -.993E-15 -.291E-14   0.208E-16 0.520E-16 0.208E-16   0.116E-07 0.116E-07 0.116E-07
   0.416E-13 0.245E-13 0.445E-13   0.422E-15 0.120E-15 0.187E-15   -.486E-16 0.243E-16 -.208E-16   -.502E-14 0.794E-15 -.590E-14

 POSITION                                       TOTAL-FORCE (eV/Angst)
      0.00000      0.00000      0.00000        -0.000000      0.000000      0.000000
      1.35750      1.35750      1.35750         0.000000     -0.000000     -0.000000
    total drift:                                0.000000      0.000000      0.000000

  FREE ENERGIE OF THE ION-ELECTRON SYSTEM (eV)
  free  energy   TOTEN  =       -10.63897852 eV

  energy  without entropy=      -10.63897852  energy(sigma->0) =      -10.63897852

 writing wavefunctions

 plasma frequency squared (from intraband transitions)
       0.000      -0.000       0.000
      -0.000       0.000       0.000
       0.000       0.000       0.000

 electrical conductivity sigma (Mega S m-1) (frequency dependency in vasprun.xml)
       0.000       0.000       0.000
       0.000       0.000      -0.000
      -0.000       0.000       0.000

 plasma frequency squared (from intraband transitions)

 plasma frequency squared (from interband transitions, int dw w eps(2)(w)
     332.457       0.000       0.000
       0.000     332.457      -0.000
       0.000      -0.000     332.457
 plasma frequency squared  (valence only):     275.596

  frequency dependent IMAGINARY DIELECTRIC FUNCTION (independent particle, no local field effects)
     E(ev)      X         Y         Z        XY        YZ        ZX
    0.000000    0.000000    0.000000    0.000000    0.000000    0.000000    0.000000
    0.491519    0.231104    0.231104    0.231104    0.000000    0.000000    0.000000
    0.983038    0.549566    0.549566    0.549566    0.000000    0.000000    0.000000
    1.474556    1.157370    1.157370    1.157370    0.000000    0.000000    0.000000
    1.966075    2.970944    2.970944    2.970944    0.000000    0.000000    0.000000
    2.457594   23.459248   23.459248   23.459248   -0.000000    0.000000    0.000000
    2.949113   55.262273   55.262273   55.262273   -0.000000    0.000000    0.000000
    3.440631   33.432654   33.432654   33.432654    0.000000   -0.000000    0.000000
    3.932150   36.596687   36.596687   36.596687    0.000000   -0.000000    0.000000
    4.423669   19.488003   19.488003   19.488003    0.000000   -0.000000    0.000000
    4.915188    8.423685    8.423685    8.423685    0.000000   -0.000000    0.000000
    5.406707    2.053429    2.053429    2.053429    0.000000   -0.000000    0.000000
    5.898225    1.509644    1.509644    1.509644    0.000000    0.000000    0.000000
    6.389744    1.165433    1.165433    1.165433    0.000000   -0.000000    0.000000
    6.881263    0.715756    0.715756    0.715756    0.000000   -0.000000    0.000000
    7.372782    0.897220    0.897220    0.897220    0.000000   -0.000000    0.000000
    7.864300    6.073147    6.073147    6.073147    0.000000   -0.000000    0.000000
    8.355819    1.792914    1.792914    1.792914    0.000000   -0.000000   -0.000000
    8.847338    2.149471    2.149471    2.149471   -0.000000   -0.000000   -0.000000
    9.338857    2.443616    2.443616    2.443616    0.000000    0.000000    0.000000
    9.830376    0.979351    0.979351    0.979351    0.000000    0.000000   -0.000000
   10.321894    0.312030    0.312030    0.312030    0.000000    0.000000    0.000000
   10.813413    1.739350    1.739350    1.739350   -0.000000    0.000000   -0.000000
   11.304932    0.429124    0.429124    0.429124    0.000000    0.000000    0.000000
   11.796451    0.391606    0.391606    0.391606    0.000000   -0.000000    0.000000
   12.287970    0.280618    0.280618    0.280618    0.000000   -0.000000    0.000000
   12.779488    0.528968    0.528968    0.528968   -0.000000   -0.000000    0.000000
   13.271007    0.217621    0.217621    0.217621   -0.000000   -0.000000   -0.000000
   13.762526    0.190661    0.190661    0.190661    0.000000    0.000000    0.000000
   14.254045    0.149813    0.149813    0.149813   -0.000000   -0.000000   -0.000000
   14.745563    0.256699    0.256699    0.256699    0.000000   -0.000000    0.000000
   15.237082    0.181346    0.181346    0.181346    0.000000    0.000000    0.000000
   15.728601    0.103302    0.103302    0.103302    0.000000    0.000000   -0.000000
   16.220120    0.082109    0.082109    0.082109    0.000000   -0.000000    0.000000
   16.711639    0.117178    0.117178    0.117178    0.000000   -0.000000    0.000000
   17.203157    0.088200    0.088200    0.088200    0.000000   -0.000000    0.000000
   17.694676    0.075093    0.075093    0.075093   -0.000000   -0.000000    0.000000
   18.186195    0.062305    0.062305    0.062305   -0.000000   -0.000000   -0.000000
   18.677714    0.163757    0.163757    0.163757   -0.000000    0.000000   -0.000000
   19.169232    0.134996    0.134996    0.134996   -0.000000   -0.000000   -0.000000
   19.660751    0.051378    0.051378    0.051378   -0.000000    0.000000   -0.000000
   20.152270    0.054321    0.054321    0.054321    0.000000   -0.000000    0.000000
   20.643789    0.078633    0.078633    0.078633    0.000000    0.000000    0.000000
   21.135308    0.038045    0.038045    0.038045   -0.000000   -0.000000   -0.000000
   21.626826    0.034363    0.034363    0.034363   -0.000000    0.000000   -0.000000
   22.118345    0.036856    0.036856    0.036856   -0.000000   -0.000000   -0.000000
   22.609864    0.030989    0.030989    0.030989    0.000000   -0.000000    0.000000
   23.101383    0.030564    0.030564    0.030564    0.000000   -0.000000    0.000000
   23.592901    0.014760    0.014760    0.014760    0.000000   -0.000000    0.000000
   24.084420    0.013669    0.013669    0.013669    0.000000   -0.000000   -0.000000
   24.575939    0.013648    0.013648    0.013648    0.000000   -0.000000    0.000000
   25.067458    0.015900    0.015900    0.015900    0.000000   -0.000000   -0.000000
   25.558977    0.007208    0.007208    0.007208    0.000000   -0.000000    0.000000
   26.050495    0.011566    0.011566    0.011566    0.000000   -0.000000    0.000000
   26.542014    0.017813    0.017813    0.017813    0.000000   -0.000000    0.000000
   27.033533    0.023947    0.023947    0.023947    0.000000   -0.000000    0.000000
   27.525052    0.036587    0.036587    0.036587    0.000000   -0.000000    0.000000
   28.016571    0.049023    0.049023    0.049023    0.000000    0.000000   -0.000000
   28.508089    0.022890    0.022890    0.022890    0.000000    0.000000   -0.000000
   28.999608    0.027088    0.027088    0.027088    0.000000   -0.000000   -0.000000
[...]
   90.930974    0.000094    0.000094    0.000094    0.000000   -0.000000    0.000000
   91.422493    0.000092    0.000092    0.000092    0.000000   -0.000000    0.000000
   91.914012    0.000091    0.000091    0.000091    0.000000   -0.000000    0.000000
   92.405531    0.000089    0.000089    0.000089    0.000000   -0.000000    0.000000
   92.897050    0.000087    0.000087    0.000087    0.000000   -0.000000    0.000000
   93.388568    0.000086    0.000086    0.000086    0.000000   -0.000000    0.000000
   93.880087    0.000085    0.000085    0.000085    0.000000   -0.000000    0.000000
   94.371606    0.000083    0.000083    0.000083    0.000000   -0.000000    0.000000
   94.863125    0.000082    0.000082    0.000082    0.000000   -0.000000    0.000000
   95.354643    0.000080    0.000080    0.000080    0.000000   -0.000000    0.000000
   95.846162    0.000079    0.000079    0.000079    0.000000   -0.000000    0.000000
   96.337681    0.000078    0.000078    0.000078    0.000000   -0.000000    0.000000
   96.829200    0.000077    0.000077    0.000077    0.000000   -0.000000    0.000000
   97.320719    0.000075    0.000075    0.000075    0.000000   -0.000000    0.000000
   97.812237    0.000074    0.000074    0.000074    0.000000   -0.000000    0.000000

  frequency dependent      REAL DIELECTRIC FUNCTION (independent particle, no local field effects)
     E(ev)      X         Y         Z        XY        YZ        ZX
    0.000000   24.109317   24.109317   24.109317    0.000000    0.000000    0.000000
    0.491519   24.659657   24.659657   24.659657    0.000000    0.000000    0.000000
    0.983038   26.506612   26.506612   26.506612    0.000000    0.000000    0.000000
    1.474556   30.467519   30.467519   30.467519    0.000000    0.000000    0.000000
    1.966075   39.439590   39.439590   39.439590    0.000000    0.000000    0.000000
    2.457594   69.093833   69.093833   69.093833    0.000000    0.000000    0.000000
    2.949113   -2.901389   -2.901389   -2.901389    0.000000   -0.000000    0.000000
    3.440631   33.225916   33.225916   33.225916    0.000000   -0.000000    0.000000
    3.932150  -55.394939  -55.394939  -55.394939   -0.000000    0.000000   -0.000000
    4.423669  -27.060185  -27.060185  -27.060185   -0.000000    0.000000   -0.000000
    4.915188  -16.174612  -16.174612  -16.174612   -0.000000    0.000000   -0.000000
    5.406707  -15.544341  -15.544341  -15.544341   -0.000000    0.000000   -0.000000
    5.898225   -8.845044   -8.845044   -8.845044   -0.000000    0.000000   -0.000000
    6.389744   -7.605532   -7.605532   -7.605532   -0.000000    0.000000   -0.000000
    6.881263   -5.288785   -5.288785   -5.288785   -0.000000    0.000000   -0.000000
    7.372782   -2.156627   -2.156627   -2.156627   -0.000000    0.000000   -0.000000
    7.864300   -1.263481   -1.263481   -1.263481   -0.000000    0.000000   -0.000000
    8.355819   -5.993195   -5.993195   -5.993195   -0.000000    0.000000   -0.000000
    8.847338   -3.514606   -3.514606   -3.514606   -0.000000    0.000000   -0.000000
    9.338857   -3.537053   -3.537053   -3.537053   -0.000000   -0.000000   -0.000000
    9.830376   -2.846876   -2.846876   -2.846876   -0.000000    0.000000   -0.000000
   10.321894   -2.385455   -2.385455   -2.385455   -0.000000    0.000000   -0.000000
   10.813413   -1.776203   -1.776203   -1.776203   -0.000000    0.000000   -0.000000
   11.304932   -2.272242   -2.272242   -2.272242   -0.000000   -0.000000   -0.000000
   11.796451   -1.552682   -1.552682   -1.552682   -0.000000   -0.000000   -0.000000
   12.287970   -1.394726   -1.394726   -1.394726   -0.000000    0.000000   -0.000000
   12.779488   -1.317340   -1.317340   -1.317340   -0.000000    0.000000   -0.000000
   13.271007   -1.127549   -1.127549   -1.127549   -0.000000    0.000000   -0.000000
   13.762526   -0.912055   -0.912055   -0.912055   -0.000000    0.000000   -0.000000
   14.254045   -0.607294   -0.607294   -0.607294   -0.000000    0.000000   -0.000000
   14.745563   -0.714895   -0.714895   -0.714895   -0.000000    0.000000   -0.000000
   15.237082   -0.591484   -0.591484   -0.591484   -0.000000    0.000000   -0.000000
   15.728601   -0.501220   -0.501220   -0.501220   -0.000000    0.000000   -0.000000
   16.220120   -0.304840   -0.304840   -0.304840   -0.000000    0.000000   -0.000000
   16.711639   -0.221810   -0.221810   -0.221810   -0.000000   -0.000000   -0.000000
   17.203157   -0.230090   -0.230090   -0.230090   -0.000000    0.000000   -0.000000
   17.694676   -0.130799   -0.130799   -0.130799   -0.000000    0.000000   -0.000000
   18.186195    0.021344    0.021344    0.021344   -0.000000    0.000000   -0.000000
   18.677714    0.048899    0.048899    0.048899   -0.000000    0.000000   -0.000000
   19.169232    0.023942    0.023942    0.023942   -0.000000    0.000000   -0.000000
   19.660751    0.079011    0.079011    0.079011   -0.000000    0.000000   -0.000000
   20.152270    0.162759    0.162759    0.162759   -0.000000    0.000000   -0.000000
   20.643789    0.190748    0.190748    0.190748   -0.000000    0.000000   -0.000000
   21.135308    0.187096    0.187096    0.187096   -0.000000    0.000000   -0.000000
   21.626826    0.270085    0.270085    0.270085   -0.000000    0.000000   -0.000000
   22.118345    0.295766    0.295766    0.295766   -0.000000    0.000000   -0.000000
   22.609864    0.319367    0.319367    0.319367   -0.000000    0.000000   -0.000000
   23.101383    0.342076    0.342076    0.342076   -0.000000    0.000000   -0.000000
   23.592901    0.386672    0.386672    0.386672   -0.000000    0.000000   -0.000000
   24.084420    0.422835    0.422835    0.422835   -0.000000    0.000000   -0.000000
   24.575939    0.441995    0.441995    0.441995   -0.000000    0.000000   -0.000000
   25.067458    0.479929    0.479929    0.479929   -0.000000    0.000000   -0.000000
   25.558977    0.496760    0.496760    0.496760   -0.000000    0.000000   -0.000000
   26.050495    0.529340    0.529340    0.529340   -0.000000    0.000000   -0.000000
   26.542014    0.556516    0.556516    0.556516   -0.000000    0.000000   -0.000000
   27.033533    0.554223    0.554223    0.554223   -0.000000    0.000000   -0.000000
   27.525052    0.584751    0.584751    0.584751   -0.000000    0.000000   -0.000000
   28.016571    0.574587    0.574587    0.574587   -0.000000    0.000000   -0.000000
   28.508089    0.596132    0.596132    0.596132   -0.000000    0.000000   -0.000000
   28.999608    0.607587    0.607587    0.607587   -0.000000    0.000000   -0.000000
[...]
   90.930974    0.958870    0.958870    0.958870   -0.000000    0.000000   -0.000000
   91.422493    0.959327    0.959327    0.959327   -0.000000    0.000000   -0.000000
   91.914012    0.959776    0.959776    0.959776   -0.000000    0.000000   -0.000000
   92.405531    0.960217    0.960217    0.960217   -0.000000    0.000000   -0.000000
   92.897050    0.960651    0.960651    0.960651   -0.000000    0.000000   -0.000000
   93.388568    0.961077    0.961077    0.961077   -0.000000    0.000000   -0.000000
   93.880087    0.961497    0.961497    0.961497   -0.000000    0.000000   -0.000000
   94.371606    0.961909    0.961909    0.961909   -0.000000    0.000000   -0.000000
   94.863125    0.962314    0.962314    0.962314   -0.000000    0.000000   -0.000000
   95.354643    0.962713    0.962713    0.962713   -0.000000    0.000000   -0.000000
   95.846162    0.963106    0.963106    0.963106   -0.000000    0.000000   -0.000000
   96.337681    0.963492    0.963492    0.963492   -0.000000    0.000000   -0.000000
   96.829200    0.963871    0.963871    0.963871   -0.000000    0.000000   -0.000000
   97.320719    0.964245    0.964245    0.964245   -0.000000    0.000000   -0.000000
   97.812237    0.964613    0.964613    0.964613   -0.000000    0.000000   -0.000000

 The outermost node in the dielectric function lies at epsilon=  18.1